c Generated with `cnfgen`
c (C) 2012-2019 Massimo Lauria <massimo.lauria@uniroma1.it>
c https://massimolauria.net/cnfgen
c
c COMMAND LINE: cnfgen --seed 1 -o ./tseitin/tseitin.grid7.s1.cnf tseitin --grid 7 7 --savegraph ./tseitin/tseitin.grid7.s1.graph --graphformat dot --charge randomeven
c
p cnf 84 288
1 2 0
-1 -2 0
1 3 4 0
1 -3 -4 0
-1 3 -4 0
-1 -3 4 0
3 5 -6 0
3 -5 6 0
-3 5 6 0
-3 -5 -6 0
5 7 -8 0
5 -7 8 0
-5 7 8 0
-5 -7 -8 0
7 9 10 0
7 -9 -10 0
-7 9 -10 0
-7 -9 10 0
9 11 12 0
9 -11 -12 0
-9 11 -12 0
-9 -11 12 0
11 13 0
-11 -13 0
2 14 -15 0
2 -14 15 0
-2 14 15 0
-2 -14 -15 0
4 14 16 -17 0
4 14 -16 17 0
4 -14 16 17 0
4 -14 -16 -17 0
-4 14 16 17 0
-4 14 -16 -17 0
-4 -14 16 -17 0
-4 -14 -16 17 0
6 16 18 -19 0
6 16 -18 19 0
6 -16 18 19 0
6 -16 -18 -19 0
-6 16 18 19 0
-6 16 -18 -19 0
-6 -16 18 -19 0
-6 -16 -18 19 0
8 18 20 -21 0
8 18 -20 21 0
8 -18 20 21 0
8 -18 -20 -21 0
-8 18 20 21 0
-8 18 -20 -21 0
-8 -18 20 -21 0
-8 -18 -20 21 0
10 20 22 -23 0
10 20 -22 23 0
10 -20 22 23 0
10 -20 -22 -23 0
-10 20 22 23 0
-10 20 -22 -23 0
-10 -20 22 -23 0
-10 -20 -22 23 0
12 22 24 -25 0
12 22 -24 25 0
12 -22 24 25 0
12 -22 -24 -25 0
-12 22 24 25 0
-12 22 -24 -25 0
-12 -22 24 -25 0
-12 -22 -24 25 0
13 24 -26 0
13 -24 26 0
-13 24 26 0
-13 -24 -26 0
15 27 -28 0
15 -27 28 0
-15 27 28 0
-15 -27 -28 0
17 27 29 -30 0
17 27 -29 30 0
17 -27 29 30 0
17 -27 -29 -30 0
-17 27 29 30 0
-17 27 -29 -30 0
-17 -27 29 -30 0
-17 -27 -29 30 0
19 29 31 32 0
19 29 -31 -32 0
19 -29 31 -32 0
19 -29 -31 32 0
-19 29 31 -32 0
-19 29 -31 32 0
-19 -29 31 32 0
-19 -29 -31 -32 0
21 31 33 34 0
21 31 -33 -34 0
21 -31 33 -34 0
21 -31 -33 34 0
-21 31 33 -34 0
-21 31 -33 34 0
-21 -31 33 34 0
-21 -31 -33 -34 0
23 33 35 -36 0
23 33 -35 36 0
23 -33 35 36 0
23 -33 -35 -36 0
-23 33 35 36 0
-23 33 -35 -36 0
-23 -33 35 -36 0
-23 -33 -35 36 0
25 35 37 38 0
25 35 -37 -38 0
25 -35 37 -38 0
25 -35 -37 38 0
-25 35 37 -38 0
-25 35 -37 38 0
-25 -35 37 38 0
-25 -35 -37 -38 0
26 37 39 0
26 -37 -39 0
-26 37 -39 0
-26 -37 39 0
28 40 41 0
28 -40 -41 0
-28 40 -41 0
-28 -40 41 0
30 40 42 43 0
30 40 -42 -43 0
30 -40 42 -43 0
30 -40 -42 43 0
-30 40 42 -43 0
-30 40 -42 43 0
-30 -40 42 43 0
-30 -40 -42 -43 0
32 42 44 45 0
32 42 -44 -45 0
32 -42 44 -45 0
32 -42 -44 45 0
-32 42 44 -45 0
-32 42 -44 45 0
-32 -42 44 45 0
-32 -42 -44 -45 0
34 44 46 -47 0
34 44 -46 47 0
34 -44 46 47 0
34 -44 -46 -47 0
-34 44 46 47 0
-34 44 -46 -47 0
-34 -44 46 -47 0
-34 -44 -46 47 0
36 46 48 -49 0
36 46 -48 49 0
36 -46 48 49 0
36 -46 -48 -49 0
-36 46 48 49 0
-36 46 -48 -49 0
-36 -46 48 -49 0
-36 -46 -48 49 0
38 48 50 -51 0
38 48 -50 51 0
38 -48 50 51 0
38 -48 -50 -51 0
-38 48 50 51 0
-38 48 -50 -51 0
-38 -48 50 -51 0
-38 -48 -50 51 0
39 50 -52 0
39 -50 52 0
-39 50 52 0
-39 -50 -52 0
41 53 -54 0
41 -53 54 0
-41 53 54 0
-41 -53 -54 0
43 53 55 56 0
43 53 -55 -56 0
43 -53 55 -56 0
43 -53 -55 56 0
-43 53 55 -56 0
-43 53 -55 56 0
-43 -53 55 56 0
-43 -53 -55 -56 0
45 55 57 -58 0
45 55 -57 58 0
45 -55 57 58 0
45 -55 -57 -58 0
-45 55 57 58 0
-45 55 -57 -58 0
-45 -55 57 -58 0
-45 -55 -57 58 0
47 57 59 60 0
47 57 -59 -60 0
47 -57 59 -60 0
47 -57 -59 60 0
-47 57 59 -60 0
-47 57 -59 60 0
-47 -57 59 60 0
-47 -57 -59 -60 0
49 59 61 -62 0
49 59 -61 62 0
49 -59 61 62 0
49 -59 -61 -62 0
-49 59 61 62 0
-49 59 -61 -62 0
-49 -59 61 -62 0
-49 -59 -61 62 0
51 61 63 -64 0
51 61 -63 64 0
51 -61 63 64 0
51 -61 -63 -64 0
-51 61 63 64 0
-51 61 -63 -64 0
-51 -61 63 -64 0
-51 -61 -63 64 0
52 63 65 0
52 -63 -65 0
-52 63 -65 0
-52 -63 65 0
54 66 -67 0
54 -66 67 0
-54 66 67 0
-54 -66 -67 0
56 66 68 69 0
56 66 -68 -69 0
56 -66 68 -69 0
56 -66 -68 69 0
-56 66 68 -69 0
-56 66 -68 69 0
-56 -66 68 69 0
-56 -66 -68 -69 0
58 68 70 71 0
58 68 -70 -71 0
58 -68 70 -71 0
58 -68 -70 71 0
-58 68 70 -71 0
-58 68 -70 71 0
-58 -68 70 71 0
-58 -68 -70 -71 0
60 70 72 -73 0
60 70 -72 73 0
60 -70 72 73 0
60 -70 -72 -73 0
-60 70 72 73 0
-60 70 -72 -73 0
-60 -70 72 -73 0
-60 -70 -72 73 0
62 72 74 75 0
62 72 -74 -75 0
62 -72 74 -75 0
62 -72 -74 75 0
-62 72 74 -75 0
-62 72 -74 75 0
-62 -72 74 75 0
-62 -72 -74 -75 0
64 74 76 77 0
64 74 -76 -77 0
64 -74 76 -77 0
64 -74 -76 77 0
-64 74 76 -77 0
-64 74 -76 77 0
-64 -74 76 77 0
-64 -74 -76 -77 0
65 76 -78 0
65 -76 78 0
-65 76 78 0
-65 -76 -78 0
67 -79 0
-67 79 0
69 79 -80 0
69 -79 80 0
-69 79 80 0
-69 -79 -80 0
71 80 81 0
71 -80 -81 0
-71 80 -81 0
-71 -80 81 0
73 81 82 0
73 -81 -82 0
-73 81 -82 0
-73 -81 82 0
75 82 -83 0
75 -82 83 0
-75 82 83 0
-75 -82 -83 0
77 83 84 0
77 -83 -84 0
-77 83 -84 0
-77 -83 84 0
78 -84 0
-78 84 0
